Step 2/5S/3 18 28 32 37/Cluster 5/VRPwTW.sol
Total_Cost = 4483.02

X :=
Ivanovo_7Continent   Ivanovo_ASHAN        1   1
Ivanovo_ASHAN        MoscowDepot          1   1
Ivanovo_Magnit       Ivanovo_7Continent   1   1
Ivanovo_Okey         Ivanovo_Magnit       1   1
Kostroma_7Continent  Ivanovo_Okey         1   1
Kostroma_ASHAN       Kostroma_7Continent  1   1
MoscowDepot          Yekaterinburg_ASHANm 1   1
Perm_LENTA           Kostroma_ASHAN       1   1
Pyshma_Perekrestok   Yekaterinburg_ASHANh 1   1
Yekaterinburg_ASHANh Perm_LENTA           1   1
Yekaterinburg_ASHANm Pyshma_Perekrestok   1   1
;

Served :=
Ivanovo_7Continent   12   1
Ivanovo_ASHAN        12   1
Ivanovo_Magnit       12   1
Ivanovo_Okey         12   1
Kostroma_7Continent  12   1
Kostroma_ASHAN       12   1
Perm_LENTA           11   1
Pyshma_Perekrestok   11   1
Yekaterinburg_ASHANh 11   1
Yekaterinburg_ASHANm 10   1
;

ATime :=
Ivanovo_7Continent   1   273.62
Ivanovo_ASHAN        1   273.9
Ivanovo_Magnit       1   273.26
Ivanovo_Okey         1   272.97
Kostroma_7Continent  1   271.33
Kostroma_ASHAN       1   271
MoscowDepot          1   278.5
Perm_LENTA           1   256.33
Pyshma_Perekrestok   1   234.67
Yekaterinburg_ASHANh 1   251.29
Yekaterinburg_ASHANm 1   231.8
;

DTime :=
Ivanovo_7Continent   1   273.82
Ivanovo_ASHAN        1   274.1
Ivanovo_Magnit       1   273.46
Ivanovo_Okey         1   273.17
Kostroma_7Continent  1   271.53
Kostroma_ASHAN       1   271.2
MoscowDepot          1   208.72
Perm_LENTA           1   256.53
Pyshma_Perekrestok   1   248.54
Yekaterinburg_ASHANh 1   251.49
Yekaterinburg_ASHANm 1   232
;

RouteDuration [*] :=
1  54.11
;

WTime :=
Ivanovo_7Continent   1    0
Ivanovo_ASHAN        1    0
Ivanovo_Magnit       1    0
Ivanovo_Okey         1    0
Kostroma_7Continent  1    0
Kostroma_ASHAN       1    0
MoscowDepot          1    0
Perm_LENTA           1    0
Pyshma_Perekrestok   1   13.67
Yekaterinburg_ASHANh 1    0
Yekaterinburg_ASHANm 1    0
;

CPLEX 12.6.0.0: timing 1

Times (seconds):
Input =  0
Solve =  1772.45
Output = 0
IBM ILOG CPLEX Optimization Studio Commercial Edition                        ÿ
CPLEX 12.6.0.0: optimal integer solution within mipgap or absmipgap; objective 4483.02
16246457 MIP simplex iterations
1855941 branch-and-bound nodes
absmipgap = 0.41091, relmipgap = 9.16593e-05

Tool completed successfully